p tw 661 1283
1 617
1 618
2 311
2 312
2 511
2 512
2 612
2 613
3 637
3 638
4 263
4 264
4 655
4 656
5 339
5 340
5 445
5 446
5 518
5 519
6 240
6 241
6 457
6 458
6 471
6 472
6 530
6 531
7 556
7 557
8 326
8 327
8 472
8 473
8 541
8 542
9 608
9 609
10 432
10 433
11 419
11 420
11 581
11 582
11 626
11 627
12 407
12 408
12 597
12 598
13 349
13 350
14 241
14 242
14 473
14 474
14 542
14 543
15 242
15 243
16 371
16 372
17 290
17 291
17 484
17 485
17 593
17 594
18 256
18 257
18 454
18 455
18 527
18 528
19 219
19 439
20 333
20 334
21 341
21 342
22 262
22 263
22 567
22 568
23 238
23 239
24 388
24 389
25 260
25 261
25 566
25 567
26 627
26 628
27 301
27 302
27 501
27 502
28 261
28 262
29 285
29 286
30 391
30 392
30 411
30 412
30 641
30 642
31 307
31 308
31 431
31 432
32 364
32 365
33 398
33 399
33 605
33 606
34 651
34 652
35 244
35 245
36 304
36 305
36 444
36 445
36 504
36 505
36 517
36 518
37 397
37 398
38 357
38 358
39 245
39 246
40 239
40 240
40 470
40 471
40 540
40 541
41 372
41 373
42 312
42 313
43 337
43 338
44 323
44 324
44 414
44 415
44 621
44 622
45 340
45 341
45 443
45 444
45 516
45 517
46 235
46 236
46 533
46 534
47 346
47 347
47 490
47 491
47 558
47 559
48 347
48 348
48 412
48 413
48 643
48 644
49 308
49 309
49 434
49 435
49 658
49 659
50 324
50 325
51 545
51 546
52 402
52 403
53 289
53 290
54 63
54 335
54 336
54 458
54 531
55 363
55 364
56 350
56 351
56 494
56 495
57 657
57 658
58 359
58 360
59 598
59 599
60 379
60 380
60 430
60 431
60 588
60 589
61 438
61 439
62 274
62 275
63 352
63 353
63 458
63 531
63 649
63 650
64 246
64 247
65 360
65 361
66 327
66 328
66 625
66 626
67 373
67 374
67 453
67 454
67 469
67 470
67 526
67 527
68 401
68 402
68 429
68 430
68 656
68 657
69 396
69 397
70 296
70 297
70 493
70 494
70 601
70 602
71 82
71 661
72 376
72 377
73 332
73 333
73 452
73 453
73 524
73 525
73 548
73 549
74 282
74 283
74 476
74 477
74 582
74 583
75 374
75 375
76 259
76 260
76 446
76 447
76 505
76 506
76 519
76 520
76 565
76 566
77 318
77 319
78 417
78 418
79 370
79 371
79 574
79 575
79 616
79 617
80 367
80 368
80 569
80 570
80 659
80 660
81 646
81 647
82 103
82 313
82 314
82 513
82 613
82 614
82 661
83 362
83 363
83 568
83 569
83 654
83 655
84 358
84 359
84 506
84 507
84 564
84 565
85 436
85 437
86 392
86 393
86 416
86 417
87 645
87 646
88 648
88 649
89 375
89 376
89 584
89 585
90 269
90 270
91 399
91 400
91 507
91 508
92 320
92 321
92 447
92 448
92 463
92 464
92 520
92 521
92 537
92 538
93 249
93 250
93 456
93 457
93 481
93 482
93 529
93 530
94 288
94 289
94 631
94 632
95 640
95 641
96 331
96 332
97 321
97 322
97 465
97 466
97 539
97 540
98 560
98 561
99 389
99 390
100 294
100 295
101 275
101 276
101 449
101 450
101 522
101 523
102 607
102 608
103 174
103 315
103 316
103 513
103 614
104 284
104 285
105 267
105 268
106 314
106 315
107 390
107 391
108 355
108 356
108 500
108 501
109 348
109 349
110 630
110 631
111 427
111 428
112 619
112 620
113 247
113 248
113 478
113 479
113 547
113 548
114 336
114 337
114 635
114 636
115 415
115 416
115 620
115 621
116 369
116 370
116 573
116 574
117 277
117 278
117 578
117 579
118 382
118 383
118 479
118 480
118 589
118 590
119 250
119 251
119 552
119 553
120 278
120 279
120 468
120 469
121 234
121 235
121 459
121 460
121 532
121 533
122 546
122 547
123 393
123 394
124 354
124 355
125 281
125 282
125 580
125 581
126 629
126 630
127 266
127 267
127 509
127 510
127 570
127 571
128 404
128 405
128 615
128 616
129 647
129 648
130 276
130 277
130 467
130 468
130 577
130 578
131 551
131 552
132 408
132 409
133 406
133 407
134 636
134 637
135 351
135 352
135 496
135 497
135 561
135 562
136 587
136 588
136 632
136 633
137 298
137 299
138 322
138 323
139 237
139 238
139 462
139 463
139 535
139 536
140 536
140 537
141 325
141 326
142 405
142 406
143 251
143 252
143 488
143 489
143 554
143 555
144 599
144 600
145 297
145 298
145 451
145 452
145 492
145 493
145 525
145 526
146 286
146 287
147 252
147 253
147 489
147 490
148 236
148 237
148 461
148 462
148 534
148 535
149 623
149 624
150 255
150 256
150 491
150 492
150 559
150 560
151 310
151 311
151 510
151 511
151 610
151 611
152 394
152 395
153 279
153 280
153 579
153 580
154 624
154 625
155 424
155 425
156 316
156 317
157 306
157 307
157 508
157 509
157 606
157 607
158 342
158 343
158 553
158 554
159 420
159 421
160 338
160 339
160 442
160 443
160 486
160 487
160 515
160 516
160 550
160 551
161 257
161 258
161 497
161 498
161 562
161 563
162 258
162 259
162 502
162 503
163 413
163 414
164 571
164 572
165 383
165 384
165 482
165 483
165 591
165 592
166 334
166 335
166 437
166 438
166 634
166 635
167 365
167 366
168 272
168 273
169 435
169 436
170 280
170 281
171 292
171 293
172 595
172 596
173 295
173 296
173 600
173 601
173 642
173 643
174 179
174 403
174 614
175 387
175 388
176 328
176 329
176 474
176 475
176 543
176 544
177 264
177 265
178 270
178 271
178 572
178 573
179 403
179 512
179 513
179 611
179 612
180 243
180 244
180 475
180 476
180 544
180 545
181 428
181 429
182 303
182 304
183 317
183 318
183 460
183 461
184 423
184 424
185 343
185 344
185 639
185 640
186 253
186 254
187 622
187 623
188 330
188 331
188 422
188 423
188 628
188 629
189 418
189 419
189 650
189 651
190 652
190 653
191 283
191 284
191 583
191 584
192 421
192 422
193 344
193 345
194 384
194 385
194 483
194 484
194 592
194 593
195 268
195 269
196 377
196 378
196 477
196 478
196 585
196 586
197 368
197 369
198 538
198 539
199 386
199 387
199 487
199 488
199 596
199 597
200 409
200 410
200 555
200 556
200 638
200 639
201 300
201 301
201 440
201 441
201 499
201 500
202 380
202 381
202 433
202 434
203 293
203 294
204 271
204 272
204 464
204 465
204 576
204 577
205 366
205 367
205 450
205 451
205 523
205 524
206 400
206 401
207 291
207 292
208 575
208 576
209 378
209 379
210 353
210 354
211 329
211 330
212 381
212 382
212 480
212 481
212 633
212 634
213 385
213 386
213 485
213 486
213 594
213 595
214 305
214 306
214 425
214 426
214 653
214 654
215 356
215 357
215 503
215 504
215 563
215 564
216 309
216 310
216 609
216 610
217 319
217 320
218 395
218 396
218 498
218 499
218 603
218 604
219 439
219 590
219 591
220 345
220 346
221 410
221 411
222 299
222 300
222 455
222 456
222 495
222 496
222 528
222 529
222 602
222 603
223 302
223 303
224 618
224 619
225 287
225 288
225 586
225 587
226 273
226 274
226 448
226 449
226 466
226 467
226 521
226 522
227 254
227 255
227 557
227 558
227 644
227 645
228 426
228 427
229 361
229 362
230 441
230 442
230 514
230 515
231 248
231 249
231 549
231 550
232 265
232 266
232 660
232 661
233 604
233 605
234 235
235 236
236 237
237 238
238 239
239 240
240 241
241 242
242 243
243 244
244 245
245 246
246 247
247 248
248 249
249 250
250 251
251 252
252 253
253 254
254 255
255 256
256 257
257 258
258 259
259 260
260 261
261 262
262 263
263 264
264 265
265 266
266 267
267 268
268 269
269 270
270 271
271 272
272 273
273 274
274 275
275 276
276 277
277 278
278 279
279 280
280 281
281 282
282 283
283 284
284 285
285 286
286 287
287 288
288 289
289 290
290 291
291 292
292 293
293 294
294 295
295 296
296 297
297 298
298 299
299 300
300 301
301 302
302 303
303 304
304 305
305 306
306 307
307 308
308 309
309 310
310 311
311 312
312 313
313 314
314 315
315 316
316 317
317 318
318 319
319 320
320 321
321 322
322 323
323 324
324 325
325 326
326 327
327 328
328 329
329 330
330 331
331 332
332 333
333 334
334 335
335 336
336 337
337 338
338 339
339 340
340 341
341 342
342 343
343 344
344 345
345 346
346 347
347 348
348 349
349 350
350 351
351 352
352 353
353 354
354 355
355 356
356 357
357 358
358 359
359 360
360 361
361 362
362 363
363 364
364 365
365 366
366 367
367 368
368 369
369 370
370 371
371 372
372 373
373 374
374 375
375 376
376 377
377 378
378 379
379 380
380 381
381 382
382 383
383 384
384 385
385 386
386 387
387 388
388 389
389 390
390 391
391 392
392 393
393 394
394 395
395 396
396 397
397 398
398 399
399 400
400 401
401 402
402 403
404 405
405 406
406 407
407 408
408 409
409 410
410 411
411 412
412 413
413 414
414 415
415 416
416 417
417 418
418 419
419 420
420 421
421 422
422 423
423 424
424 425
425 426
426 427
427 428
428 429
429 430
430 431
431 432
432 433
433 434
434 435
435 436
436 437
437 438
438 439
440 441
441 442
442 443
443 444
444 445
445 446
446 447
447 448
448 449
449 450
450 451
451 452
452 453
453 454
454 455
455 456
456 457
457 458
459 460
460 461
461 462
462 463
463 464
464 465
465 466
466 467
467 468
468 469
469 470
470 471
471 472
472 473
473 474
474 475
475 476
476 477
477 478
478 479
479 480
480 481
481 482
482 483
483 484
484 485
485 486
486 487
487 488
488 489
489 490
490 491
491 492
492 493
493 494
494 495
495 496
496 497
497 498
498 499
499 500
500 501
501 502
502 503
503 504
504 505
505 506
506 507
507 508
508 509
509 510
510 511
511 512
512 513
514 515
515 516
516 517
517 518
518 519
519 520
520 521
521 522
522 523
523 524
524 525
525 526
526 527
527 528
528 529
529 530
530 531
532 533
533 534
534 535
535 536
536 537
537 538
538 539
539 540
540 541
541 542
542 543
543 544
544 545
545 546
546 547
547 548
548 549
549 550
550 551
551 552
552 553
553 554
554 555
555 556
556 557
557 558
558 559
559 560
560 561
561 562
562 563
563 564
564 565
565 566
566 567
567 568
568 569
569 570
570 571
571 572
572 573
573 574
574 575
575 576
576 577
577 578
578 579
579 580
580 581
581 582
582 583
583 584
584 585
585 586
586 587
587 588
588 589
589 590
590 591
591 592
592 593
593 594
594 595
595 596
596 597
597 598
598 599
599 600
600 601
601 602
602 603
603 604
604 605
605 606
606 607
607 608
608 609
609 610
610 611
611 612
612 613
613 614
615 616
616 617
617 618
618 619
619 620
620 621
621 622
622 623
623 624
624 625
625 626
626 627
627 628
628 629
629 630
630 631
631 632
632 633
633 634
634 635
635 636
636 637
637 638
638 639
639 640
640 641
641 642
642 643
643 644
644 645
645 646
646 647
647 648
648 649
649 650
650 651
651 652
652 653
653 654
654 655
655 656
656 657
657 658
658 659
659 660
660 661
